20	38
0	1	59
0	7	42
0	18	52
1	10	85
1	15	8
1	18	99
2	5	9
2	7	84
2	14	49
2	15	95
2	18	75
2	19	14
3	5	76
3	13	27
3	16	73
4	5	91
4	6	7
4	7	3
6	14	80
6	17	40
7	12	63
7	13	86
8	14	49
8	18	99
9	15	25
9	18	44
9	19	69
10	12	16
10	16	52
11	18	25
12	14	10
12	19	7
13	15	56
13	16	4
13	18	40
15	19	29
17	18	86
18	19	30
